# Objective value = 1.6378572874385222e+00
X[0,0] 0
X[0,1] 0
X[0,2] 1
X[0,3] 0
X[0,4] 0
X[0,5] 0
X[1,0] 0
X[1,1] 0
X[1,2] 0
X[1,3] 0
X[1,4] 0
X[1,5] 1
X[2,0] 0
X[2,1] 0
X[2,2] 0
X[2,3] 0
X[2,4] 1
X[2,5] 0
X[3,0] 0
X[3,1] 0
X[3,2] 0
X[3,3] 0
X[3,4] 0
X[3,5] 1
X[4,0] 0
X[4,1] 0
X[4,2] 0
X[4,3] 0
X[4,4] 0
X[4,5] 1
X[5,0] 0
X[5,1] 0
X[5,2] 0
X[5,3] 0
X[5,4] 0
X[5,5] 1
X[6,0] 1
X[6,1] 0
X[6,2] 0
X[6,3] 0
X[6,4] 0
X[6,5] 0
X[7,0] 1
X[7,1] 0
X[7,2] 0
X[7,3] 0
X[7,4] 0
X[7,5] 0
X[8,0] 0
X[8,1] 0
X[8,2] 0
X[8,3] 0
X[8,4] 1
X[8,5] 0
X[9,0] 0
X[9,1] 0
X[9,2] 0
X[9,3] 0
X[9,4] 1
X[9,5] 0
X[10,0] 0
X[10,1] 0
X[10,2] 0
X[10,3] 0
X[10,4] 1
X[10,5] 0
X[11,0] 0
X[11,1] 0
X[11,2] 1
X[11,3] 0
X[11,4] 0
X[11,5] 0
X[12,0] 0
X[12,1] 0
X[12,2] 0
X[12,3] 0
X[12,4] 1
X[12,5] 0
X[13,0] 0
X[13,1] 1
X[13,2] 0
X[13,3] 0
X[13,4] 0
X[13,5] 0
X[14,0] 0
X[14,1] 0
X[14,2] 1
X[14,3] 0
X[14,4] 0
X[14,5] 0
X[15,0] 0
X[15,1] 0
X[15,2] 0
X[15,3] 0
X[15,4] 0
X[15,5] 1
X[16,0] 1
X[16,1] 0
X[16,2] 0
X[16,3] 0
X[16,4] 0
X[16,5] 0
X[17,0] 0
X[17,1] 0
X[17,2] 0
X[17,3] 1
X[17,4] 0
X[17,5] 0
X[18,0] 0
X[18,1] 0
X[18,2] 0
X[18,3] 0
X[18,4] 1
X[18,5] 0
X[19,0] 0
X[19,1] 0
X[19,2] 0
X[19,3] 1
X[19,4] 0
X[19,5] 0
X[20,0] 0
X[20,1] 0
X[20,2] 0
X[20,3] 0
X[20,4] 1
X[20,5] 0
X[21,0] 0
X[21,1] 0
X[21,2] 0
X[21,3] 0
X[21,4] 0
X[21,5] 1
X[22,0] 0
X[22,1] 0
X[22,2] 0
X[22,3] 0
X[22,4] 0
X[22,5] 1
X[23,0] 0
X[23,1] 0
X[23,2] 0
X[23,3] 0
X[23,4] 1
X[23,5] 0
X[24,0] 1
X[24,1] 0
X[24,2] 0
X[24,3] 0
X[24,4] 0
X[24,5] 0
X[25,0] 1
X[25,1] 0
X[25,2] 0
X[25,3] 0
X[25,4] 0
X[25,5] 0
X[26,0] 0
X[26,1] 0
X[26,2] 0
X[26,3] 0
X[26,4] 0
X[26,5] 1
X[27,0] 0
X[27,1] 0
X[27,2] 0
X[27,3] 1
X[27,4] 0
X[27,5] 0
X[28,0] 0
X[28,1] 0
X[28,2] 0
X[28,3] 1
X[28,4] 0
X[28,5] 0
X[29,0] 1
X[29,1] 0
X[29,2] 0
X[29,3] 0
X[29,4] 0
X[29,5] 0
X[30,0] 1
X[30,1] 0
X[30,2] 0
X[30,3] 0
X[30,4] 0
X[30,5] 0
X[31,0] 0
X[31,1] 0
X[31,2] 1
X[31,3] 0
X[31,4] 0
X[31,5] 0
X[32,0] 1
X[32,1] 0
X[32,2] 0
X[32,3] 0
X[32,4] 0
X[32,5] 0
X[33,0] 1
X[33,1] 0
X[33,2] 0
X[33,3] 0
X[33,4] 0
X[33,5] 0
X[34,0] 0
X[34,1] 1
X[34,2] 0
X[34,3] 0
X[34,4] 0
X[34,5] 0
X[35,0] 0
X[35,1] 0
X[35,2] 1
X[35,3] 0
X[35,4] 0
X[35,5] 0
X[36,0] 0
X[36,1] 0
X[36,2] 0
X[36,3] 1
X[36,4] 0
X[36,5] 0
X[37,0] 0
X[37,1] 0
X[37,2] 0
X[37,3] 1
X[37,4] 0
X[37,5] 0
X[38,0] 0
X[38,1] 0
X[38,2] 0
X[38,3] 0
X[38,4] 0
X[38,5] 1
X[39,0] 1
X[39,1] 0
X[39,2] 0
X[39,3] 0
X[39,4] 0
X[39,5] 0
X[40,0] 0
X[40,1] 0
X[40,2] 0
X[40,3] 0
X[40,4] 0
X[40,5] 1
X[41,0] 0
X[41,1] 0
X[41,2] 0
X[41,3] 0
X[41,4] 0
X[41,5] 1
X[42,0] 0
X[42,1] 0
X[42,2] 1
X[42,3] 0
X[42,4] 0
X[42,5] 0
X[43,0] 0
X[43,1] 0
X[43,2] 0
X[43,3] 0
X[43,4] 0
X[43,5] 1
X[44,0] 1
X[44,1] 0
X[44,2] 0
X[44,3] 0
X[44,4] 0
X[44,5] 0
X[45,0] 0
X[45,1] 0
X[45,2] 0
X[45,3] 0
X[45,4] 1
X[45,5] 0
X[46,0] 0
X[46,1] 0
X[46,2] 0
X[46,3] 0
X[46,4] 0
X[46,5] 1
X[47,0] 0
X[47,1] 0
X[47,2] 0
X[47,3] 0
X[47,4] 1
X[47,5] 0
X[48,0] 0
X[48,1] 0
X[48,2] 0
X[48,3] 0
X[48,4] 0
X[48,5] 1
X[49,0] 0
X[49,1] 0
X[49,2] 0
X[49,3] 1
X[49,4] 0
X[49,5] 0
X[50,0] 0
X[50,1] 0
X[50,2] 0
X[50,3] 0
X[50,4] 0
X[50,5] 1
X[51,0] 1
X[51,1] 0
X[51,2] 0
X[51,3] 0
X[51,4] 0
X[51,5] 0
X[52,0] 0
X[52,1] 0
X[52,2] 0
X[52,3] 0
X[52,4] 0
X[52,5] 1
X[53,0] 0
X[53,1] 0
X[53,2] 1
X[53,3] 0
X[53,4] 0
X[53,5] 0
X[54,0] 1
X[54,1] 0
X[54,2] 0
X[54,3] 0
X[54,4] 0
X[54,5] 0
X[55,0] 0
X[55,1] 0
X[55,2] 0
X[55,3] 0
X[55,4] 0
X[55,5] 1
X[56,0] 0
X[56,1] 0
X[56,2] 0
X[56,3] 1
X[56,4] 0
X[56,5] 0
X[57,0] 0
X[57,1] 0
X[57,2] 0
X[57,3] 0
X[57,4] 0
X[57,5] 1
X[58,0] 0
X[58,1] 0
X[58,2] 0
X[58,3] 0
X[58,4] 0
X[58,5] 1
X[59,0] 0
X[59,1] 0
X[59,2] 0
X[59,3] 1
X[59,4] 0
X[59,5] 0
X[60,0] 1
X[60,1] 0
X[60,2] 0
X[60,3] 0
X[60,4] 0
X[60,5] 0
X[61,0] 0
X[61,1] 0
X[61,2] 0
X[61,3] 0
X[61,4] 0
X[61,5] 1
X[62,0] 0
X[62,1] 0
X[62,2] 0
X[62,3] 0
X[62,4] 0
X[62,5] 1
X[63,0] 1
X[63,1] 0
X[63,2] 0
X[63,3] 0
X[63,4] 0
X[63,5] 0
C384 0
C385 0
C386 0
C387 0
C388 0
C389 0
C390 0
C391 0
C392 0
C393 0
C394 0
C395 0
C396 0
C397 0
C398 0
C399 0
C400 0
C401 0
C402 0
C403 0
C404 0
C405 0
C406 0
C407 0
C408 0
C409 0
C410 0
C411 0
C412 0
C413 0
C414 0
C415 0
C416 0
C417 0
C418 0
C419 0
C420 0
C421 0
C422 0
C423 0
C424 0
C425 0
C426 0
C427 0
C428 0
C429 0
C430 0
C431 0
C432 0
C433 0
C434 0
C435 0
C436 0
C437 0
C438 0
C439 0
C440 0
C441 0
C442 0
C443 0
C444 0
C445 0
C446 0
C447 0
C448 0
C449 0
C450 0
C451 0
C452 0
C453 0
C454 0
C455 0
C456 0
C457 0
C458 0
C459 0
C460 0
C461 0
C462 0
C463 1
C464 0
C465 0
C466 0
C467 0
C468 0
C469 0
C470 0
C471 0
C472 0
C473 0
C474 0
C475 0
C476 0
C477 0
C478 0
C479 0
C480 1
C481 0
C482 0
C483 0
C484 0
C485 0
C486 0
C487 0
C488 0
C489 0
C490 0
C491 0
C492 0
C493 0
C494 0
C495 0
C496 0
C497 0
C498 0
C499 0
C500 0
C501 0
C502 0
C503 0
C504 0
C505 0
C506 0
C507 0
C508 0
C509 0
C510 0
C511 0
C512 0
C513 0
C514 0
C515 0
C516 0
C517 0
C518 0
C519 0
C520 0
C521 0
C522 0
C523 0
C524 0
C525 0
C526 0
C527 0
C528 0
C529 0
C530 0
C531 0
C532 0
C533 0
C534 0
C535 0
C536 0
C537 0
C538 0
C539 0
C540 0
C541 0
C542 0
C543 0
C544 0
C545 0
C546 0
C547 0
C548 0
C549 0
C550 0
C551 0
C552 0
C553 0
C554 0
C555 0
C556 0
C557 0
C558 0
C559 0
C560 0
C561 0
C562 0
C563 0
C564 0
C565 0
C566 0
C567 0
C568 0
C569 0
C570 0
C571 0
C572 0
C573 0
C574 0
C575 0
C576 0
C577 0
C578 0
C579 0
C580 0
C581 0
C582 0
C583 0
C584 0
C585 0
C586 0
C587 0
C588 0
C589 0
C590 0
C591 0
C592 0
C593 0
C594 0
C595 0
C596 0
C597 0
C598 0
C599 0
C600 0
C601 0
C602 0
C603 0
C604 0
C605 0
C606 0
C607 0
C608 0
C609 0
C610 0
C611 0
C612 0
C613 0
C614 0
C615 0
C616 0
C617 0
C618 0
C619 0
C620 0
C621 0
C622 0
C623 0
C624 0
C625 0
C626 0
C627 0
C628 0
C629 0
C630 0
C631 0
C632 0
C633 0
C634 0
C635 0
C636 0
C637 0
C638 0
C639 0
C640 0
C641 0
C642 0
C643 0
C644 0
C645 0
C646 0
C647 0
C648 0
C649 0
C650 0
C651 0
C652 0
C653 0
C654 0
C655 0
C656 0
C657 0
C658 0
C659 0
C660 0
C661 0
C662 0
C663 0
C664 0
C665 0
C666 0
C667 0
C668 0
C669 0
C670 0
C671 0
C672 0
C673 0
C674 0
C675 0
C676 0
C677 0
C678 0
C679 0
C680 0
C681 0
C682 0
C683 0
C684 0
C685 0
C686 0
C687 0
C688 0
C689 0
C690 0
C691 0
C692 0
C693 0
C694 0
C695 0
C696 0
C697 0
C698 0
C699 0
C700 0
C701 0
C702 0
C703 0
C704 0
C705 0
C706 0
C707 0
C708 0
C709 0
C710 0
C711 0
C712 0
C713 0
C714 0
C715 0
C716 0
C717 0
C718 0
C719 0
C720 0
C721 0
C722 0
C723 0
C724 0
C725 0
C726 0
C727 0
C728 0
C729 0
C730 0
C731 0
C732 0
C733 0
C734 0
C735 0
C736 0
C737 0
C738 0
C739 0
C740 0
C741 0
C742 0
C743 0
C744 0
C745 0
C746 0
C747 0
C748 0
C749 0
C750 0
C751 0
C752 0
C753 0
C754 0
C755 0
C756 0
C757 0
C758 0
C759 0
C760 0
C761 0
C762 0
C763 0
C764 0
C765 0
C766 0
C767 0
cdf0 5.3584187033512132e-01
cdf1 4.0796127957184591e-01
cdf2 5.6289654972838665e-02
cdf3 1.3088667672097737e-01
cdf4 3.9730456638020245e-01
cdf5 1.0957323945753664e-01
cdf0,0 0
cdf0,1 0
cdf0,2 0
cdf0,3 0
cdf0,4 0
cdf0,5 0
cdf0,6 0
cdf0,7 0
cdf0,8 0
cdf0,9 0
cdf0,10 0
cdf0,11 0
cdf0,12 0
cdf0,13 0
cdf0,14 0
cdf0,15 0
cdf0,16 0
cdf0,17 0
cdf0,18 0
cdf0,19 0
cdf0,20 0
cdf0,21 0
cdf0,22 0
cdf0,23 0
cdf0,24 0
cdf0,25 0
cdf0,26 0
cdf0,27 0
cdf0,28 0
cdf0,29 0
cdf0,30 0
cdf0,31 0
cdf0,32 0
cdf0,33 0
cdf0,34 0
cdf0,35 0
cdf0,36 0
cdf0,37 0
cdf0,38 0
cdf0,39 0
cdf0,40 0
cdf0,41 0
cdf0,42 0
cdf0,43 0
cdf0,44 0
cdf0,45 0
cdf0,46 0
cdf0,47 0
cdf0,48 0
cdf0,49 0
cdf0,50 1
cdf0,51 1
cdf0,52 1
cdf0,53 1
cdf0,54 1
cdf0,55 1
cdf0,56 1
cdf0,57 1
cdf0,58 1
cdf0,59 1
cdf0,60 1
cdf0,61 1
cdf0,62 1
cdf0,63 1
cdf0,64 1
cdf0,65 1
cdf0,66 1
cdf0,67 1
cdf0,68 1
cdf0,69 1
cdf0,70 1
cdf0,71 1
cdf0,72 1
cdf0,73 1
cdf0,74 1
cdf0,75 1
cdf0,76 1
cdf0,77 1
cdf0,78 1
cdf0,79 1
cdf0,80 1
cdf0,81 1
cdf0,82 1
cdf0,83 1
cdf0,84 1
cdf0,85 1
cdf0,86 1
cdf0,87 1
cdf0,88 1
cdf0,89 1
cdf0,90 1
cdf1,0 0
cdf1,1 0
cdf1,2 0
cdf1,3 0
cdf1,4 0
cdf1,5 0
cdf1,6 0
cdf1,7 0
cdf1,8 0
cdf1,9 0
cdf1,10 0
cdf1,11 0
cdf1,12 0
cdf1,13 0
cdf1,14 0
cdf1,15 0
cdf1,16 0
cdf1,17 0
cdf1,18 0
cdf1,19 0
cdf1,20 0
cdf1,21 0
cdf1,22 0
cdf1,23 0
cdf1,24 0
cdf1,25 0
cdf1,26 0
cdf1,27 0
cdf1,28 0
cdf1,29 0
cdf1,30 0
cdf1,31 0
cdf1,32 0
cdf1,33 0
cdf1,34 0
cdf1,35 0
cdf1,36 0
cdf1,37 0
cdf1,38 1
cdf1,39 1
cdf1,40 1
cdf1,41 1
cdf1,42 1
cdf1,43 1
cdf1,44 1
cdf1,45 1
cdf1,46 1
cdf1,47 1
cdf1,48 1
cdf1,49 1
cdf1,50 1
cdf1,51 1
cdf1,52 1
cdf1,53 1
cdf1,54 1
cdf1,55 1
cdf1,56 1
cdf1,57 1
cdf1,58 1
cdf1,59 1
cdf1,60 1
cdf1,61 1
cdf1,62 1
cdf1,63 1
cdf1,64 1
cdf1,65 1
cdf1,66 1
cdf1,67 1
cdf1,68 1
cdf1,69 1
cdf1,70 1
cdf1,71 1
cdf1,72 1
cdf1,73 1
cdf1,74 1
cdf1,75 1
cdf1,76 1
cdf1,77 1
cdf1,78 1
cdf1,79 1
cdf1,80 1
cdf1,81 1
cdf1,82 1
cdf1,83 1
cdf1,84 1
cdf1,85 1
cdf1,86 1
cdf1,87 1
cdf1,88 1
cdf1,89 1
cdf1,90 1
cdf2,0 0
cdf2,1 0
cdf2,2 0
cdf2,3 0
cdf2,4 0
cdf2,5 1
cdf2,6 1
cdf2,7 1
cdf2,8 1
cdf2,9 1
cdf2,10 1
cdf2,11 1
cdf2,12 1
cdf2,13 1
cdf2,14 1
cdf2,15 1
cdf2,16 1
cdf2,17 1
cdf2,18 1
cdf2,19 1
cdf2,20 1
cdf2,21 1
cdf2,22 1
cdf2,23 1
cdf2,24 1
cdf2,25 1
cdf2,26 1
cdf2,27 1
cdf2,28 1
cdf2,29 1
cdf2,30 1
cdf2,31 1
cdf2,32 1
cdf2,33 1
cdf2,34 1
cdf2,35 1
cdf2,36 1
cdf2,37 1
cdf2,38 1
cdf2,39 1
cdf2,40 1
cdf2,41 1
cdf2,42 1
cdf2,43 1
cdf2,44 1
cdf2,45 1
cdf2,46 1
cdf2,47 1
cdf2,48 1
cdf2,49 1
cdf2,50 1
cdf2,51 1
cdf2,52 1
cdf2,53 1
cdf2,54 1
cdf2,55 1
cdf2,56 1
cdf2,57 1
cdf2,58 1
cdf2,59 1
cdf2,60 1
cdf2,61 1
cdf2,62 1
cdf2,63 1
cdf2,64 1
cdf2,65 1
cdf2,66 1
cdf2,67 1
cdf2,68 1
cdf2,69 1
cdf2,70 1
cdf2,71 1
cdf2,72 1
cdf2,73 1
cdf2,74 1
cdf2,75 1
cdf2,76 1
cdf2,77 1
cdf2,78 1
cdf2,79 1
cdf2,80 1
cdf2,81 1
cdf2,82 1
cdf2,83 1
cdf2,84 1
cdf2,85 1
cdf2,86 1
cdf2,87 1
cdf2,88 1
cdf2,89 1
cdf2,90 1
cdf3,0 0
cdf3,1 0
cdf3,2 0
cdf3,3 0
cdf3,4 0
cdf3,5 0
cdf3,6 0
cdf3,7 0
cdf3,8 0
cdf3,9 0
cdf3,10 0
cdf3,11 0
cdf3,12 1
cdf3,13 1
cdf3,14 1
cdf3,15 1
cdf3,16 1
cdf3,17 1
cdf3,18 1
cdf3,19 1
cdf3,20 1
cdf3,21 1
cdf3,22 1
cdf3,23 1
cdf3,24 1
cdf3,25 1
cdf3,26 1
cdf3,27 1
cdf3,28 1
cdf3,29 1
cdf3,30 1
cdf3,31 1
cdf3,32 1
cdf3,33 1
cdf3,34 1
cdf3,35 1
cdf3,36 1
cdf3,37 1
cdf3,38 1
cdf3,39 1
cdf3,40 1
cdf3,41 1
cdf3,42 1
cdf3,43 1
cdf3,44 1
cdf3,45 1
cdf3,46 1
cdf3,47 1
cdf3,48 1
cdf3,49 1
cdf3,50 1
cdf3,51 1
cdf3,52 1
cdf3,53 1
cdf3,54 1
cdf3,55 1
cdf3,56 1
cdf3,57 1
cdf3,58 1
cdf3,59 1
cdf3,60 1
cdf3,61 1
cdf3,62 1
cdf3,63 1
cdf3,64 1
cdf3,65 1
cdf3,66 1
cdf3,67 1
cdf3,68 1
cdf3,69 1
cdf3,70 1
cdf3,71 1
cdf3,72 1
cdf3,73 1
cdf3,74 1
cdf3,75 1
cdf3,76 1
cdf3,77 1
cdf3,78 1
cdf3,79 1
cdf3,80 1
cdf3,81 1
cdf3,82 1
cdf3,83 1
cdf3,84 1
cdf3,85 1
cdf3,86 1
cdf3,87 1
cdf3,88 1
cdf3,89 1
cdf3,90 1
cdf4,0 0
cdf4,1 0
cdf4,2 0
cdf4,3 0
cdf4,4 0
cdf4,5 0
cdf4,6 0
cdf4,7 0
cdf4,8 0
cdf4,9 0
cdf4,10 0
cdf4,11 0
cdf4,12 0
cdf4,13 0
cdf4,14 0
cdf4,15 0
cdf4,16 0
cdf4,17 0
cdf4,18 0
cdf4,19 0
cdf4,20 0
cdf4,21 0
cdf4,22 0
cdf4,23 0
cdf4,24 0
cdf4,25 0
cdf4,26 0
cdf4,27 0
cdf4,28 0
cdf4,29 0
cdf4,30 0
cdf4,31 0
cdf4,32 0
cdf4,33 0
cdf4,34 0
cdf4,35 0
cdf4,36 0
cdf4,37 1
cdf4,38 1
cdf4,39 1
cdf4,40 1
cdf4,41 1
cdf4,42 1
cdf4,43 1
cdf4,44 1
cdf4,45 1
cdf4,46 1
cdf4,47 1
cdf4,48 1
cdf4,49 1
cdf4,50 1
cdf4,51 1
cdf4,52 1
cdf4,53 1
cdf4,54 1
cdf4,55 1
cdf4,56 1
cdf4,57 1
cdf4,58 1
cdf4,59 1
cdf4,60 1
cdf4,61 1
cdf4,62 1
cdf4,63 1
cdf4,64 1
cdf4,65 1
cdf4,66 1
cdf4,67 1
cdf4,68 1
cdf4,69 1
cdf4,70 1
cdf4,71 1
cdf4,72 1
cdf4,73 1
cdf4,74 1
cdf4,75 1
cdf4,76 1
cdf4,77 1
cdf4,78 1
cdf4,79 1
cdf4,80 1
cdf4,81 1
cdf4,82 1
cdf4,83 1
cdf4,84 1
cdf4,85 1
cdf4,86 1
cdf4,87 1
cdf4,88 1
cdf4,89 1
cdf4,90 1
cdf5,0 0
cdf5,1 0
cdf5,2 0
cdf5,3 0
cdf5,4 0
cdf5,5 0
cdf5,6 0
cdf5,7 0
cdf5,8 0
cdf5,9 0
cdf5,10 1
cdf5,11 1
cdf5,12 1
cdf5,13 1
cdf5,14 1
cdf5,15 1
cdf5,16 1
cdf5,17 1
cdf5,18 1
cdf5,19 1
cdf5,20 1
cdf5,21 1
cdf5,22 1
cdf5,23 1
cdf5,24 1
cdf5,25 1
cdf5,26 1
cdf5,27 1
cdf5,28 1
cdf5,29 1
cdf5,30 1
cdf5,31 1
cdf5,32 1
cdf5,33 1
cdf5,34 1
cdf5,35 1
cdf5,36 1
cdf5,37 1
cdf5,38 1
cdf5,39 1
cdf5,40 1
cdf5,41 1
cdf5,42 1
cdf5,43 1
cdf5,44 1
cdf5,45 1
cdf5,46 1
cdf5,47 1
cdf5,48 1
cdf5,49 1
cdf5,50 1
cdf5,51 1
cdf5,52 1
cdf5,53 1
cdf5,54 1
cdf5,55 1
cdf5,56 1
cdf5,57 1
cdf5,58 1
cdf5,59 1
cdf5,60 1
cdf5,61 1
cdf5,62 1
cdf5,63 1
cdf5,64 1
cdf5,65 1
cdf5,66 1
cdf5,67 1
cdf5,68 1
cdf5,69 1
cdf5,70 1
cdf5,71 1
cdf5,72 1
cdf5,73 1
cdf5,74 1
cdf5,75 1
cdf5,76 1
cdf5,77 1
cdf5,78 1
cdf5,79 1
cdf5,80 1
cdf5,81 1
cdf5,82 1
cdf5,83 1
cdf5,84 1
cdf5,85 1
cdf5,86 1
cdf5,87 1
cdf5,88 1
cdf5,89 1
cdf5,90 1
vap0 549860
vap1 650850
vap2 584877
vap3 615010
vap4 534477
vap5 635474
bvap0 232833
bvap1 245876
bvap2 102752
bvap3 149350
bvap4 199216
bvap5 143727
